(declare-const |b':80:97| Int)
(declare-const havoc Int)
(declare-const |b':80:90| Int)
(declare-const |K:95:96| Int)
(declare-const |havoc:2| Int)
(declare-fun pow (Real Real) Real)
(declare-const |r':79:89| Int)
(declare-const |q':78:91| Int)
(declare-const |K:87:88| Int)
(assert (and (<= (- havoc) 0) (<= (- |havoc:2|) 0)
               (not (= (ite (< (+ |havoc:2| -2147483647) 0) 1 0) 0))
               (not (= (ite (<= (+ (- |havoc:2|) 1) 0) 1 0) 0))
               (or (not (<= (- |K:95:96|) 0))
                     (= (+ |b':80:97| (- (* (pow 2 |K:95:96|) |havoc:2|))) 0))
               (or (not (<= (- |K:95:96|) 0))
                     (<= (+ |b':80:97| (- |havoc:2|) (- (* |K:95:96| havoc))) 0))
               (or (not (<= (- |K:95:96|) 0))
                     (<= (+ (- |b':80:97|) |havoc:2|) 0))
               (or (and (= |K:95:96| 0) (= (+ (- |b':80:97|) |havoc:2|) 0))
                     (and (<= (+ (- |K:95:96|) 1) 0)
                            (<= (+ |havoc:2| (- havoc)) 0)
                            (<= (- |havoc:2|) 0)
                            (<= (+ |b':80:97| (* -2 havoc)) 0)
                            (<= (- |b':80:97|) 0))) (<= (- |K:95:96|) 0)
               (<= (- |b':80:97|) 0) (<= (- havoc) 0)
               (< (+ (- |b':80:97|) havoc) 0)
               (or (not (<= (- |K:87:88|) 0)) (<= (+ |r':79:89| (- havoc)) 0))
               (or (not (<= (- |K:87:88|) 0))
                     (<= (+ |b':80:90| |r':79:89| |K:87:88| (- |b':80:97|)
                              (- (* |K:87:88| |havoc:2|)) (- havoc)) 0))
               (or (not (<= (- |K:87:88|) 0)) (<= (- |q':78:91|) 0))
               (or (not (<= (- |K:87:88|) 0))
                     (<= (+ |b':80:90| (- |r':79:89|) (- |b':80:97|) havoc) 0))
               (or (not (<= (- |K:87:88|) 0))
                     (<= (+ (- |q':78:91|) |b':80:90| (- |r':79:89|)
                              |K:87:88| (- |b':80:97|) havoc) 0))
               (or (not (<= (- |K:87:88|) 0))
                     (<= (+ (- |r':79:89|) (- (* |K:87:88| havoc)) havoc) 0))
               (or (and (= |K:87:88| 0) (= (+ (- |b':80:90|) |b':80:97|) 0)
                          (= (+ (- |r':79:89|) havoc) 0) (= (- |q':78:91|) 0))
                     (and (<= (+ (- |K:87:88|) 1) 0)
                            (<= (+ (* -2 (to_int (* (/ 1 2) |b':80:97|)))
                                     |b':80:97| -1) 0) (<= (- |havoc:2|) 0)
                            (<= (- (* |b':80:97| havoc)) 0)
                            (<= (- (to_int (* (/ 1 2) |b':80:97|))) 0)
                            (<= (+ (* 2 (to_int (* (/ 1 2) |b':80:97|)))
                                     (- |b':80:97|)) 0)
                            (<= (+ (to_int (* (/ 1 2) |b':80:97|))
                                     (- |b':80:97|) (- |havoc:2|)
                                     (- (* |b':80:97| havoc)) 1) 0)
                            (<= (+ (- |b':80:97|) (- |havoc:2|) 1) 0)
                            (<= (- havoc) 0)
                            (<= (+ (to_int (* (/ 1 2) |b':80:97|))
                                     (- |b':80:97|) (- |havoc:2|) (- 
                                     havoc) 1) 0)
                            (<= (+ |r':79:89| (- havoc)) 0)
                            (<= (- |b':80:90|) 0) (<= (- |havoc:2|) 0)
                            (<= (- |r':79:89|) 0) (<= (- |q':78:91|) 0)
                            (<= (+ (- |q':78:91|) (- |b':80:90|) 1) 0)))
               (<= (- |K:87:88|) 0) (<= (- |q':78:91|) 0)
               (<= (- |b':80:90|) 0) (<= (- |r':79:89|) 0)
               (<= (- |havoc:2|) 0) (<= (- havoc) 0)
               (= (+ (- (* |q':78:91| |b':80:90|)) (- |r':79:89|) havoc) 0)
               (<= (+ (- |b':80:90|) |havoc:2|) 0)
               (<= (+ |b':80:90| (- |havoc:2|)) 0)
               (not (= (+ (- (* |q':78:91| |b':80:90|)) (- |r':79:89|) havoc) 0))))
(check-sat)
